N = 20;
M = 30;
Edge_Start = [1, 1, 1, 2, 2, 3, 3, 4, 4, 5, 5, 6, 6, 7, 8, 8, 9, 10, 10, 11, 12, 12, 13, 13, 14, 15, 16, 17, 18, 19];
Edge_End = [2, 20, 11, 3, 9, 4, 7, 5, 20, 6, 18, 7, 16, 8, 9, 15, 10, 11, 14, 12, 13, 19, 14, 17, 15, 16, 17, 18, 19, 20];
L = [4, 2, 5, 4, 5, 5, 2, 2, 4, 4, 5, 4, 3, 5, 5, 3, 2, 3, 5, 5, 3, 3, 3, 4, 4, 4, 4, 2, 2, 3];
T = [2, 3, 10, 5, 9, 3, 3, 0, 4, 2, 7, 6, 4, 9, 9, 2, 7, 5, 6, 3, 8, 5, 7, 4, 8, 8, 8, 2, 2, 2];
Lower_Bound = [1, 1, 5, 3, 3, 1, 0, 3, 2, 3, 3, 4, 0, 3, 4, 5, 1, 5, 0, 2];
Upper_Bound = [61, 64, 69, 74, 74, 76, 83, 98, 108, 116, 121, 126, 138, 148, 156, 166, 174, 177, 180, 182];
Start = 1;
End = 20;
Time = 153;
